c Standarized MaxSat Instance
c{
c "sha1sum": "6ddf94dc3af702a0b28e452f140455f34e8274a0",
c "nvars": 256,
c "ncls": 1037,
c "nhards": 0,
c "nhard_len_stats":
c    { "min": 0, "max": 0, "ave": 0.00,
c      "stddev": 0.00 },
c "nsofts": 1037,
c "nsoft_len_stats":
c    { "min": 1, "max": 3, "ave": 2.71,
c      "stddev": 0.53 },
c "nsoft_wts": 2,
c "soft_wt_stats":
c    { "min": 1, "max": 41, "ave": 39.46,
c      "stddev": 7.70 }
c}
c------------------------------------------------------------
c This instance encodes a supposedly trivial MaxSAT formula.
c The hard part of the formula encodes a cardinality constraint:
c     x1 + ... + x40 <= 12
c Cardinality encoding used is 'tot'.
c The soft part prefers all the variables to be set to true:
c     x1 = 1, ..., x40 = 1
c As a result, the optimum cost for this formula is 28.
c
p wcnf 256 1037 40918
1 1 0
1 2 0
1 3 0
1 4 0
1 5 0
1 6 0
1 7 0
1 8 0
1 9 0
1 10 0
1 11 0
1 12 0
1 13 0
1 14 0
1 15 0
1 16 0
1 17 0
1 18 0
1 19 0
1 20 0
1 21 0
1 22 0
1 23 0
1 24 0
1 25 0
1 26 0
1 27 0
1 28 0
1 29 0
1 30 0
1 31 0
1 32 0
1 33 0
1 34 0
1 35 0
1 36 0
1 37 0
1 38 0
1 39 0
1 40 0
41 -101 41 0
41 -102 42 0
41 -103 43 0
41 -104 44 0
41 -105 45 0
41 -106 46 0
41 -107 47 0
41 -108 48 0
41 -109 49 0
41 -110 50 0
41 -111 51 0
41 -112 52 0
41 -113 53 0
41 -114 54 0
41 -115 55 0
41 -116 56 0
41 -117 57 0
41 -118 58 0
41 -119 59 0
41 -120 60 0
41 -81 41 0
41 -82 42 0
41 -83 43 0
41 -84 44 0
41 -85 45 0
41 -86 46 0
41 -87 47 0
41 -88 48 0
41 -89 49 0
41 -90 50 0
41 -91 51 0
41 -92 52 0
41 -93 53 0
41 -94 54 0
41 -95 55 0
41 -96 56 0
41 -97 57 0
41 -98 58 0
41 -99 59 0
41 -100 60 0
41 -81 -101 42 0
41 -81 -102 43 0
41 -81 -103 44 0
41 -81 -104 45 0
41 -81 -105 46 0
41 -81 -106 47 0
41 -81 -107 48 0
41 -81 -108 49 0
41 -81 -109 50 0
41 -81 -110 51 0
41 -81 -111 52 0
41 -81 -112 53 0
41 -81 -113 54 0
41 -81 -114 55 0
41 -81 -115 56 0
41 -81 -116 57 0
41 -81 -117 58 0
41 -81 -118 59 0
41 -81 -119 60 0
41 -81 -120 61 0
41 -82 -101 43 0
41 -82 -102 44 0
41 -82 -103 45 0
41 -82 -104 46 0
41 -82 -105 47 0
41 -82 -106 48 0
41 -82 -107 49 0
41 -82 -108 50 0
41 -82 -109 51 0
41 -82 -110 52 0
41 -82 -111 53 0
41 -82 -112 54 0
41 -82 -113 55 0
41 -82 -114 56 0
41 -82 -115 57 0
41 -82 -116 58 0
41 -82 -117 59 0
41 -82 -118 60 0
41 -82 -119 61 0
41 -82 -120 62 0
41 -83 -101 44 0
41 -83 -102 45 0
41 -83 -103 46 0
41 -83 -104 47 0
41 -83 -105 48 0
41 -83 -106 49 0
41 -83 -107 50 0
41 -83 -108 51 0
41 -83 -109 52 0
41 -83 -110 53 0
41 -83 -111 54 0
41 -83 -112 55 0
41 -83 -113 56 0
41 -83 -114 57 0
41 -83 -115 58 0
41 -83 -116 59 0
41 -83 -117 60 0
41 -83 -118 61 0
41 -83 -119 62 0
41 -83 -120 63 0
41 -84 -101 45 0
41 -84 -102 46 0
41 -84 -103 47 0
41 -84 -104 48 0
41 -84 -105 49 0
41 -84 -106 50 0
41 -84 -107 51 0
41 -84 -108 52 0
41 -84 -109 53 0
41 -84 -110 54 0
41 -84 -111 55 0
41 -84 -112 56 0
41 -84 -113 57 0
41 -84 -114 58 0
41 -84 -115 59 0
41 -84 -116 60 0
41 -84 -117 61 0
41 -84 -118 62 0
41 -84 -119 63 0
41 -84 -120 64 0
41 -85 -101 46 0
41 -85 -102 47 0
41 -85 -103 48 0
41 -85 -104 49 0
41 -85 -105 50 0
41 -85 -106 51 0
41 -85 -107 52 0
41 -85 -108 53 0
41 -85 -109 54 0
41 -85 -110 55 0
41 -85 -111 56 0
41 -85 -112 57 0
41 -85 -113 58 0
41 -85 -114 59 0
41 -85 -115 60 0
41 -85 -116 61 0
41 -85 -117 62 0
41 -85 -118 63 0
41 -85 -119 64 0
41 -85 -120 65 0
41 -86 -101 47 0
41 -86 -102 48 0
41 -86 -103 49 0
41 -86 -104 50 0
41 -86 -105 51 0
41 -86 -106 52 0
41 -86 -107 53 0
41 -86 -108 54 0
41 -86 -109 55 0
41 -86 -110 56 0
41 -86 -111 57 0
41 -86 -112 58 0
41 -86 -113 59 0
41 -86 -114 60 0
41 -86 -115 61 0
41 -86 -116 62 0
41 -86 -117 63 0
41 -86 -118 64 0
41 -86 -119 65 0
41 -86 -120 66 0
41 -87 -101 48 0
41 -87 -102 49 0
41 -87 -103 50 0
41 -87 -104 51 0
41 -87 -105 52 0
41 -87 -106 53 0
41 -87 -107 54 0
41 -87 -108 55 0
41 -87 -109 56 0
41 -87 -110 57 0
41 -87 -111 58 0
41 -87 -112 59 0
41 -87 -113 60 0
41 -87 -114 61 0
41 -87 -115 62 0
41 -87 -116 63 0
41 -87 -117 64 0
41 -87 -118 65 0
41 -87 -119 66 0
41 -87 -120 67 0
41 -88 -101 49 0
41 -88 -102 50 0
41 -88 -103 51 0
41 -88 -104 52 0
41 -88 -105 53 0
41 -88 -106 54 0
41 -88 -107 55 0
41 -88 -108 56 0
41 -88 -109 57 0
41 -88 -110 58 0
41 -88 -111 59 0
41 -88 -112 60 0
41 -88 -113 61 0
41 -88 -114 62 0
41 -88 -115 63 0
41 -88 -116 64 0
41 -88 -117 65 0
41 -88 -118 66 0
41 -88 -119 67 0
41 -88 -120 68 0
41 -89 -101 50 0
41 -89 -102 51 0
41 -89 -103 52 0
41 -89 -104 53 0
41 -89 -105 54 0
41 -89 -106 55 0
41 -89 -107 56 0
41 -89 -108 57 0
41 -89 -109 58 0
41 -89 -110 59 0
41 -89 -111 60 0
41 -89 -112 61 0
41 -89 -113 62 0
41 -89 -114 63 0
41 -89 -115 64 0
41 -89 -116 65 0
41 -89 -117 66 0
41 -89 -118 67 0
41 -89 -119 68 0
41 -89 -120 69 0
41 -90 -101 51 0
41 -90 -102 52 0
41 -90 -103 53 0
41 -90 -104 54 0
41 -90 -105 55 0
41 -90 -106 56 0
41 -90 -107 57 0
41 -90 -108 58 0
41 -90 -109 59 0
41 -90 -110 60 0
41 -90 -111 61 0
41 -90 -112 62 0
41 -90 -113 63 0
41 -90 -114 64 0
41 -90 -115 65 0
41 -90 -116 66 0
41 -90 -117 67 0
41 -90 -118 68 0
41 -90 -119 69 0
41 -90 -120 70 0
41 -91 -101 52 0
41 -91 -102 53 0
41 -91 -103 54 0
41 -91 -104 55 0
41 -91 -105 56 0
41 -91 -106 57 0
41 -91 -107 58 0
41 -91 -108 59 0
41 -91 -109 60 0
41 -91 -110 61 0
41 -91 -111 62 0
41 -91 -112 63 0
41 -91 -113 64 0
41 -91 -114 65 0
41 -91 -115 66 0
41 -91 -116 67 0
41 -91 -117 68 0
41 -91 -118 69 0
41 -91 -119 70 0
41 -91 -120 71 0
41 -92 -101 53 0
41 -92 -102 54 0
41 -92 -103 55 0
41 -92 -104 56 0
41 -92 -105 57 0
41 -92 -106 58 0
41 -92 -107 59 0
41 -92 -108 60 0
41 -92 -109 61 0
41 -92 -110 62 0
41 -92 -111 63 0
41 -92 -112 64 0
41 -92 -113 65 0
41 -92 -114 66 0
41 -92 -115 67 0
41 -92 -116 68 0
41 -92 -117 69 0
41 -92 -118 70 0
41 -92 -119 71 0
41 -92 -120 72 0
41 -93 -101 54 0
41 -93 -102 55 0
41 -93 -103 56 0
41 -93 -104 57 0
41 -93 -105 58 0
41 -93 -106 59 0
41 -93 -107 60 0
41 -93 -108 61 0
41 -93 -109 62 0
41 -93 -110 63 0
41 -93 -111 64 0
41 -93 -112 65 0
41 -93 -113 66 0
41 -93 -114 67 0
41 -93 -115 68 0
41 -93 -116 69 0
41 -93 -117 70 0
41 -93 -118 71 0
41 -93 -119 72 0
41 -93 -120 73 0
41 -94 -101 55 0
41 -94 -102 56 0
41 -94 -103 57 0
41 -94 -104 58 0
41 -94 -105 59 0
41 -94 -106 60 0
41 -94 -107 61 0
41 -94 -108 62 0
41 -94 -109 63 0
41 -94 -110 64 0
41 -94 -111 65 0
41 -94 -112 66 0
41 -94 -113 67 0
41 -94 -114 68 0
41 -94 -115 69 0
41 -94 -116 70 0
41 -94 -117 71 0
41 -94 -118 72 0
41 -94 -119 73 0
41 -94 -120 74 0
41 -95 -101 56 0
41 -95 -102 57 0
41 -95 -103 58 0
41 -95 -104 59 0
41 -95 -105 60 0
41 -95 -106 61 0
41 -95 -107 62 0
41 -95 -108 63 0
41 -95 -109 64 0
41 -95 -110 65 0
41 -95 -111 66 0
41 -95 -112 67 0
41 -95 -113 68 0
41 -95 -114 69 0
41 -95 -115 70 0
41 -95 -116 71 0
41 -95 -117 72 0
41 -95 -118 73 0
41 -95 -119 74 0
41 -95 -120 75 0
41 -96 -101 57 0
41 -96 -102 58 0
41 -96 -103 59 0
41 -96 -104 60 0
41 -96 -105 61 0
41 -96 -106 62 0
41 -96 -107 63 0
41 -96 -108 64 0
41 -96 -109 65 0
41 -96 -110 66 0
41 -96 -111 67 0
41 -96 -112 68 0
41 -96 -113 69 0
41 -96 -114 70 0
41 -96 -115 71 0
41 -96 -116 72 0
41 -96 -117 73 0
41 -96 -118 74 0
41 -96 -119 75 0
41 -96 -120 76 0
41 -97 -101 58 0
41 -97 -102 59 0
41 -97 -103 60 0
41 -97 -104 61 0
41 -97 -105 62 0
41 -97 -106 63 0
41 -97 -107 64 0
41 -97 -108 65 0
41 -97 -109 66 0
41 -97 -110 67 0
41 -97 -111 68 0
41 -97 -112 69 0
41 -97 -113 70 0
41 -97 -114 71 0
41 -97 -115 72 0
41 -97 -116 73 0
41 -97 -117 74 0
41 -97 -118 75 0
41 -97 -119 76 0
41 -97 -120 77 0
41 -98 -101 59 0
41 -98 -102 60 0
41 -98 -103 61 0
41 -98 -104 62 0
41 -98 -105 63 0
41 -98 -106 64 0
41 -98 -107 65 0
41 -98 -108 66 0
41 -98 -109 67 0
41 -98 -110 68 0
41 -98 -111 69 0
41 -98 -112 70 0
41 -98 -113 71 0
41 -98 -114 72 0
41 -98 -115 73 0
41 -98 -116 74 0
41 -98 -117 75 0
41 -98 -118 76 0
41 -98 -119 77 0
41 -98 -120 78 0
41 -99 -101 60 0
41 -99 -102 61 0
41 -99 -103 62 0
41 -99 -104 63 0
41 -99 -105 64 0
41 -99 -106 65 0
41 -99 -107 66 0
41 -99 -108 67 0
41 -99 -109 68 0
41 -99 -110 69 0
41 -99 -111 70 0
41 -99 -112 71 0
41 -99 -113 72 0
41 -99 -114 73 0
41 -99 -115 74 0
41 -99 -116 75 0
41 -99 -117 76 0
41 -99 -118 77 0
41 -99 -119 78 0
41 -99 -120 79 0
41 -100 -101 61 0
41 -100 -102 62 0
41 -100 -103 63 0
41 -100 -104 64 0
41 -100 -105 65 0
41 -100 -106 66 0
41 -100 -107 67 0
41 -100 -108 68 0
41 -100 -109 69 0
41 -100 -110 70 0
41 -100 -111 71 0
41 -100 -112 72 0
41 -100 -113 73 0
41 -100 -114 74 0
41 -100 -115 75 0
41 -100 -116 76 0
41 -100 -117 77 0
41 -100 -118 78 0
41 -100 -119 79 0
41 -100 -120 80 0
41 -131 101 0
41 -132 102 0
41 -133 103 0
41 -134 104 0
41 -135 105 0
41 -136 106 0
41 -137 107 0
41 -138 108 0
41 -139 109 0
41 -140 110 0
41 -121 101 0
41 -122 102 0
41 -123 103 0
41 -124 104 0
41 -125 105 0
41 -126 106 0
41 -127 107 0
41 -128 108 0
41 -129 109 0
41 -130 110 0
41 -121 -131 102 0
41 -121 -132 103 0
41 -121 -133 104 0
41 -121 -134 105 0
41 -121 -135 106 0
41 -121 -136 107 0
41 -121 -137 108 0
41 -121 -138 109 0
41 -121 -139 110 0
41 -121 -140 111 0
41 -122 -131 103 0
41 -122 -132 104 0
41 -122 -133 105 0
41 -122 -134 106 0
41 -122 -135 107 0
41 -122 -136 108 0
41 -122 -137 109 0
41 -122 -138 110 0
41 -122 -139 111 0
41 -122 -140 112 0
41 -123 -131 104 0
41 -123 -132 105 0
41 -123 -133 106 0
41 -123 -134 107 0
41 -123 -135 108 0
41 -123 -136 109 0
41 -123 -137 110 0
41 -123 -138 111 0
41 -123 -139 112 0
41 -123 -140 113 0
41 -124 -131 105 0
41 -124 -132 106 0
41 -124 -133 107 0
41 -124 -134 108 0
41 -124 -135 109 0
41 -124 -136 110 0
41 -124 -137 111 0
41 -124 -138 112 0
41 -124 -139 113 0
41 -124 -140 114 0
41 -125 -131 106 0
41 -125 -132 107 0
41 -125 -133 108 0
41 -125 -134 109 0
41 -125 -135 110 0
41 -125 -136 111 0
41 -125 -137 112 0
41 -125 -138 113 0
41 -125 -139 114 0
41 -125 -140 115 0
41 -126 -131 107 0
41 -126 -132 108 0
41 -126 -133 109 0
41 -126 -134 110 0
41 -126 -135 111 0
41 -126 -136 112 0
41 -126 -137 113 0
41 -126 -138 114 0
41 -126 -139 115 0
41 -126 -140 116 0
41 -127 -131 108 0
41 -127 -132 109 0
41 -127 -133 110 0
41 -127 -134 111 0
41 -127 -135 112 0
41 -127 -136 113 0
41 -127 -137 114 0
41 -127 -138 115 0
41 -127 -139 116 0
41 -127 -140 117 0
41 -128 -131 109 0
41 -128 -132 110 0
41 -128 -133 111 0
41 -128 -134 112 0
41 -128 -135 113 0
41 -128 -136 114 0
41 -128 -137 115 0
41 -128 -138 116 0
41 -128 -139 117 0
41 -128 -140 118 0
41 -129 -131 110 0
41 -129 -132 111 0
41 -129 -133 112 0
41 -129 -134 113 0
41 -129 -135 114 0
41 -129 -136 115 0
41 -129 -137 116 0
41 -129 -138 117 0
41 -129 -139 118 0
41 -129 -140 119 0
41 -130 -131 111 0
41 -130 -132 112 0
41 -130 -133 113 0
41 -130 -134 114 0
41 -130 -135 115 0
41 -130 -136 116 0
41 -130 -137 117 0
41 -130 -138 118 0
41 -130 -139 119 0
41 -130 -140 120 0
41 -146 131 0
41 -147 132 0
41 -148 133 0
41 -149 134 0
41 -150 135 0
41 -141 131 0
41 -142 132 0
41 -143 133 0
41 -144 134 0
41 -145 135 0
41 -141 -146 132 0
41 -141 -147 133 0
41 -141 -148 134 0
41 -141 -149 135 0
41 -141 -150 136 0
41 -142 -146 133 0
41 -142 -147 134 0
41 -142 -148 135 0
41 -142 -149 136 0
41 -142 -150 137 0
41 -143 -146 134 0
41 -143 -147 135 0
41 -143 -148 136 0
41 -143 -149 137 0
41 -143 -150 138 0
41 -144 -146 135 0
41 -144 -147 136 0
41 -144 -148 137 0
41 -144 -149 138 0
41 -144 -150 139 0
41 -145 -146 136 0
41 -145 -147 137 0
41 -145 -148 138 0
41 -145 -149 139 0
41 -145 -150 140 0
41 -154 146 0
41 -155 147 0
41 -151 146 0
41 -152 147 0
41 -153 148 0
41 -151 -154 147 0
41 -151 -155 148 0
41 -152 -154 148 0
41 -152 -155 149 0
41 -153 -154 149 0
41 -153 -155 150 0
41 -40 154 0
41 -39 154 0
41 -39 -40 155 0
41 -38 151 0
41 -156 151 0
41 -157 152 0
41 -156 -38 152 0
41 -157 -38 153 0
41 -37 156 0
41 -36 156 0
41 -36 -37 157 0
41 -161 141 0
41 -162 142 0
41 -158 141 0
41 -159 142 0
41 -160 143 0
41 -158 -161 142 0
41 -158 -162 143 0
41 -159 -161 143 0
41 -159 -162 144 0
41 -160 -161 144 0
41 -160 -162 145 0
41 -35 161 0
41 -34 161 0
41 -34 -35 162 0
41 -33 158 0
41 -163 158 0
41 -164 159 0
41 -163 -33 159 0
41 -164 -33 160 0
41 -32 163 0
41 -31 163 0
41 -31 -32 164 0
41 -170 121 0
41 -171 122 0
41 -172 123 0
41 -173 124 0
41 -174 125 0
41 -165 121 0
41 -166 122 0
41 -167 123 0
41 -168 124 0
41 -169 125 0
41 -165 -170 122 0
41 -165 -171 123 0
41 -165 -172 124 0
41 -165 -173 125 0
41 -165 -174 126 0
41 -166 -170 123 0
41 -166 -171 124 0
41 -166 -172 125 0
41 -166 -173 126 0
41 -166 -174 127 0
41 -167 -170 124 0
41 -167 -171 125 0
41 -167 -172 126 0
41 -167 -173 127 0
41 -167 -174 128 0
41 -168 -170 125 0
41 -168 -171 126 0
41 -168 -172 127 0
41 -168 -173 128 0
41 -168 -174 129 0
41 -169 -170 126 0
41 -169 -171 127 0
41 -169 -172 128 0
41 -169 -173 129 0
41 -169 -174 130 0
41 -178 170 0
41 -179 171 0
41 -175 170 0
41 -176 171 0
41 -177 172 0
41 -175 -178 171 0
41 -175 -179 172 0
41 -176 -178 172 0
41 -176 -179 173 0
41 -177 -178 173 0
41 -177 -179 174 0
41 -30 178 0
41 -29 178 0
41 -29 -30 179 0
41 -28 175 0
41 -180 175 0
41 -181 176 0
41 -180 -28 176 0
41 -181 -28 177 0
41 -27 180 0
41 -26 180 0
41 -26 -27 181 0
41 -185 165 0
41 -186 166 0
41 -182 165 0
41 -183 166 0
41 -184 167 0
41 -182 -185 166 0
41 -182 -186 167 0
41 -183 -185 167 0
41 -183 -186 168 0
41 -184 -185 168 0
41 -184 -186 169 0
41 -25 185 0
41 -24 185 0
41 -24 -25 186 0
41 -23 182 0
41 -187 182 0
41 -188 183 0
41 -187 -23 183 0
41 -188 -23 184 0
41 -22 187 0
41 -21 187 0
41 -21 -22 188 0
41 -199 81 0
41 -200 82 0
41 -201 83 0
41 -202 84 0
41 -203 85 0
41 -204 86 0
41 -205 87 0
41 -206 88 0
41 -207 89 0
41 -208 90 0
41 -189 81 0
41 -190 82 0
41 -191 83 0
41 -192 84 0
41 -193 85 0
41 -194 86 0
41 -195 87 0
41 -196 88 0
41 -197 89 0
41 -198 90 0
41 -189 -199 82 0
41 -189 -200 83 0
41 -189 -201 84 0
41 -189 -202 85 0
41 -189 -203 86 0
41 -189 -204 87 0
41 -189 -205 88 0
41 -189 -206 89 0
41 -189 -207 90 0
41 -189 -208 91 0
41 -190 -199 83 0
41 -190 -200 84 0
41 -190 -201 85 0
41 -190 -202 86 0
41 -190 -203 87 0
41 -190 -204 88 0
41 -190 -205 89 0
41 -190 -206 90 0
41 -190 -207 91 0
41 -190 -208 92 0
41 -191 -199 84 0
41 -191 -200 85 0
41 -191 -201 86 0
41 -191 -202 87 0
41 -191 -203 88 0
41 -191 -204 89 0
41 -191 -205 90 0
41 -191 -206 91 0
41 -191 -207 92 0
41 -191 -208 93 0
41 -192 -199 85 0
41 -192 -200 86 0
41 -192 -201 87 0
41 -192 -202 88 0
41 -192 -203 89 0
41 -192 -204 90 0
41 -192 -205 91 0
41 -192 -206 92 0
41 -192 -207 93 0
41 -192 -208 94 0
41 -193 -199 86 0
41 -193 -200 87 0
41 -193 -201 88 0
41 -193 -202 89 0
41 -193 -203 90 0
41 -193 -204 91 0
41 -193 -205 92 0
41 -193 -206 93 0
41 -193 -207 94 0
41 -193 -208 95 0
41 -194 -199 87 0
41 -194 -200 88 0
41 -194 -201 89 0
41 -194 -202 90 0
41 -194 -203 91 0
41 -194 -204 92 0
41 -194 -205 93 0
41 -194 -206 94 0
41 -194 -207 95 0
41 -194 -208 96 0
41 -195 -199 88 0
41 -195 -200 89 0
41 -195 -201 90 0
41 -195 -202 91 0
41 -195 -203 92 0
41 -195 -204 93 0
41 -195 -205 94 0
41 -195 -206 95 0
41 -195 -207 96 0
41 -195 -208 97 0
41 -196 -199 89 0
41 -196 -200 90 0
41 -196 -201 91 0
41 -196 -202 92 0
41 -196 -203 93 0
41 -196 -204 94 0
41 -196 -205 95 0
41 -196 -206 96 0
41 -196 -207 97 0
41 -196 -208 98 0
41 -197 -199 90 0
41 -197 -200 91 0
41 -197 -201 92 0
41 -197 -202 93 0
41 -197 -203 94 0
41 -197 -204 95 0
41 -197 -205 96 0
41 -197 -206 97 0
41 -197 -207 98 0
41 -197 -208 99 0
41 -198 -199 91 0
41 -198 -200 92 0
41 -198 -201 93 0
41 -198 -202 94 0
41 -198 -203 95 0
41 -198 -204 96 0
41 -198 -205 97 0
41 -198 -206 98 0
41 -198 -207 99 0
41 -198 -208 100 0
41 -214 199 0
41 -215 200 0
41 -216 201 0
41 -217 202 0
41 -218 203 0
41 -209 199 0
41 -210 200 0
41 -211 201 0
41 -212 202 0
41 -213 203 0
41 -209 -214 200 0
41 -209 -215 201 0
41 -209 -216 202 0
41 -209 -217 203 0
41 -209 -218 204 0
41 -210 -214 201 0
41 -210 -215 202 0
41 -210 -216 203 0
41 -210 -217 204 0
41 -210 -218 205 0
41 -211 -214 202 0
41 -211 -215 203 0
41 -211 -216 204 0
41 -211 -217 205 0
41 -211 -218 206 0
41 -212 -214 203 0
41 -212 -215 204 0
41 -212 -216 205 0
41 -212 -217 206 0
41 -212 -218 207 0
41 -213 -214 204 0
41 -213 -215 205 0
41 -213 -216 206 0
41 -213 -217 207 0
41 -213 -218 208 0
41 -222 214 0
41 -223 215 0
41 -219 214 0
41 -220 215 0
41 -221 216 0
41 -219 -222 215 0
41 -219 -223 216 0
41 -220 -222 216 0
41 -220 -223 217 0
41 -221 -222 217 0
41 -221 -223 218 0
41 -20 222 0
41 -19 222 0
41 -19 -20 223 0
41 -18 219 0
41 -224 219 0
41 -225 220 0
41 -224 -18 220 0
41 -225 -18 221 0
41 -17 224 0
41 -16 224 0
41 -16 -17 225 0
41 -229 209 0
41 -230 210 0
41 -226 209 0
41 -227 210 0
41 -228 211 0
41 -226 -229 210 0
41 -226 -230 211 0
41 -227 -229 211 0
41 -227 -230 212 0
41 -228 -229 212 0
41 -228 -230 213 0
41 -15 229 0
41 -14 229 0
41 -14 -15 230 0
41 -13 226 0
41 -231 226 0
41 -232 227 0
41 -231 -13 227 0
41 -232 -13 228 0
41 -12 231 0
41 -11 231 0
41 -11 -12 232 0
41 -238 189 0
41 -239 190 0
41 -240 191 0
41 -241 192 0
41 -242 193 0
41 -233 189 0
41 -234 190 0
41 -235 191 0
41 -236 192 0
41 -237 193 0
41 -233 -238 190 0
41 -233 -239 191 0
41 -233 -240 192 0
41 -233 -241 193 0
41 -233 -242 194 0
41 -234 -238 191 0
41 -234 -239 192 0
41 -234 -240 193 0
41 -234 -241 194 0
41 -234 -242 195 0
41 -235 -238 192 0
41 -235 -239 193 0
41 -235 -240 194 0
41 -235 -241 195 0
41 -235 -242 196 0
41 -236 -238 193 0
41 -236 -239 194 0
41 -236 -240 195 0
41 -236 -241 196 0
41 -236 -242 197 0
41 -237 -238 194 0
41 -237 -239 195 0
41 -237 -240 196 0
41 -237 -241 197 0
41 -237 -242 198 0
41 -246 238 0
41 -247 239 0
41 -243 238 0
41 -244 239 0
41 -245 240 0
41 -243 -246 239 0
41 -243 -247 240 0
41 -244 -246 240 0
41 -244 -247 241 0
41 -245 -246 241 0
41 -245 -247 242 0
41 -10 246 0
41 -9 246 0
41 -9 -10 247 0
41 -8 243 0
41 -248 243 0
41 -249 244 0
41 -248 -8 244 0
41 -249 -8 245 0
41 -7 248 0
41 -6 248 0
41 -6 -7 249 0
41 -253 233 0
41 -254 234 0
41 -250 233 0
41 -251 234 0
41 -252 235 0
41 -250 -253 234 0
41 -250 -254 235 0
41 -251 -253 235 0
41 -251 -254 236 0
41 -252 -253 236 0
41 -252 -254 237 0
41 -5 253 0
41 -4 253 0
41 -4 -5 254 0
41 -3 250 0
41 -255 250 0
41 -256 251 0
41 -255 -3 251 0
41 -256 -3 252 0
41 -2 255 0
41 -1 255 0
41 -1 -2 256 0
41 -53 0
